# Cost: 228

# Tail Head Net
36 16 1
56 36 1
76 56 1
96 76 1
116 96 1
136 116 1
142 141 1
143 142 1
144 143 1
145 144 1
146 145 1
156 136 1
156 556 1
176 156 1
196 176 1
216 196 1
217 216 1
218 217 1
219 218 1
220 219 1
546 146 1
547 546 1
548 547 1
549 548 1
550 549 1
551 550 1
552 551 1
553 552 1
554 553 1
555 554 1
556 555 1
8 28 2
28 48 2
48 68 2
68 88 2
88 108 2
108 128 2
128 148 2
148 168 2
168 188 2
188 208 2
208 228 2
228 248 2
248 268 2
268 288 2
288 289 2
288 688 2
289 290 2
290 291 2
291 292 2
292 293 2
293 294 2
294 295 2
295 296 2
296 297 2
297 298 2
298 299 2
299 300 2
687 707 2
688 687 2
706 726 2
707 706 2
726 746 2
746 766 2
766 786 2
786 386 2
201 221 3
221 241 3
241 261 3
261 281 3
281 301 3
301 302 3
302 303 3
303 703 3
703 723 3
723 743 3
743 763 3
763 783 3
783 383 3
78 79 4
79 80 4
98 78 4
118 98 4
138 118 4
158 138 4
321 341 4
322 321 4
323 322 4
324 323 4
325 324 4
326 325 4
327 326 4
389 789 4
558 158 4
578 558 4
598 578 4
610 611 4
611 612 4
612 613 4
613 614 4
614 615 4
615 616 4
616 617 4
617 618 4
618 598 4
630 610 4
650 630 4
669 670 4
670 650 4
689 669 4
709 689 4
727 327 4
728 727 4
729 709 4
729 728 4
749 729 4
769 749 4
789 769 4
3 23 5
23 24 5
24 44 5
44 64 5
64 84 5
84 104 5
104 124 5
124 125 5
125 126 5
126 127 5
127 147 5
147 167 5
167 187 5
187 207 5
207 227 5
227 247 5
247 267 5
267 287 5
287 307 5
307 308 5
308 309 5
309 310 5
310 311 5
311 312 5
312 313 5
312 332 5
313 314 5
314 315 5
315 316 5
316 317 5
317 318 5
318 319 5
319 320 5
332 352 5
352 372 5
372 392 5
21 22 6
22 422 6
340 360 6
360 380 6
380 400 6
422 423 6
423 424 6
424 425 6
425 426 6
426 427 6
427 428 6
428 429 6
429 449 6
449 450 6
450 470 6
470 471 6
471 491 6
491 492 6
492 512 6
512 513 6
513 514 6
514 534 6
534 535 6
535 536 6
536 537 6
537 538 6
538 539 6
539 559 6
559 579 6
579 599 6
599 619 6
619 639 6
639 659 6
659 679 6
679 680 6
680 700 6
700 720 6
720 740 6
740 340 6
384 385 7
140 120 8
160 140 8
180 160 8
197 198 8
198 199 8
199 200 8
200 180 8
342 343 8
343 344 8
344 345 8
345 745 8
362 342 8
382 362 8
588 589 8
589 590 8
590 591 8
591 592 8
592 593 8
593 594 8
594 595 8
595 596 8
596 597 8
597 197 8
608 588 8
626 627 8
627 628 8
628 608 8
646 626 8
666 646 8
685 686 8
686 666 8
705 685 8
725 705 8
745 725 8
